
  22    4
  10   10   10   10

   0   0   0   0   0   1 2 
   7  10  10  10  10   2 5 3 
   4  10  10  10  10   3 15 6 4 
   3  10  10  10  10   3 10 9 8 
   7  10  10  10  10   3 10 9 8 
   8  10  10  10  10   1 7 
   2  10  10  10  10   3 14 12 9 
   4  10  10  10  10   6 21 18 14 13 12 11 
   7  10  10  10  10   4 21 18 13 11 
   2  10  10  10  10   3 21 12 11 
   6  10  10  10  10   2 17 16 
   6  10  10  10  10   2 17 16 
   5  10  10  10  10   1 16 
  10  10  10  10  10   1 16 
   7  10  10  10  10   1 17 
   8  10  10  10  10   2 20 19 
   6  10  10  10  10   2 20 19 
   7  10  10  10  10   2 20 19 
   7  10  10  10  10   1 22
   1  10  10  10  10   1 22
   4  10  10  10  10   1 22
   0   0   0   0   0   0 
